173647.95,50.23,62.29
180272.23,48.39,60.0
181388.76,48.09,59.63
156174.94,55.85,69.26
165172.35,52.81,65.49
203516.43,42.86,53.15
168635.2,51.72,64.14
161757.3,53.92,66.87
169028.97,51.6,63.99
168926.4,51.64,64.03
164980.59,52.87,65.56
162675.41,53.62,66.49
152376.98,57.24,70.99
167862.23,51.96,64.44
177821.08,49.05,60.83
161670.95,53.95,66.91
170897.36,51.04,63.29
162981.21,53.52,66.37
165085.88,52.84,65.52
150666.72,57.89,71.79
